data;


param d:= 100;
param r:=5;
param p:=0.900000;
param M:=1000;
param U:=
         1         1       -6.576879e-01
         2         1       -2.797800e+00
         3         1       -1.194048e-01
         4         1        1.008637e+00
         5         1        1.638402e-01
         6         1        4.194070e-01
         7         1       -8.625461e-02
         8         1       -1.504602e+00
         9         1        1.596630e+00
        10         1       -1.039530e+00
        11         1        7.063417e-01
        12         1        1.653463e-01
        13         1       -4.640798e-01
        14         1        1.062474e+00
        15         1        1.442009e+00
        16         1       -3.110308e-01
        17         1        1.769956e+00
        18         1        2.247483e+00
        19         1        8.355624e-01
        20         1        6.310879e-01
        21         1       -6.124223e-01
        22         1       -1.454263e+00
        23         1       -3.490684e-01
        24         1       -8.685534e-01
        25         1        5.173516e-01
        26         1       -8.106356e-01
        27         1        1.021408e+00
        28         1        1.193426e+00
        29         1       -1.296199e+00
        30         1       -9.823860e-01
        31         1        4.415150e-01
        32         1       -1.432764e-01
        33         1        6.322383e-01
        34         1        1.395534e-01
        35         1        1.486346e+00
        36         1        1.493544e+00
        37         1       -4.375981e-01
        38         1        2.348665e+00
        39         1        5.546423e-01
        40         1       -2.441327e+00
        41         1        1.543622e+00
        42         1       -1.399066e+00
        43         1       -5.733023e-01
        44         1        1.323544e+00
        45         1        4.491105e-01
        46         1        1.174830e-01
        47         1        7.909563e-01
        48         1        6.942195e-01
        49         1        1.253432e+00
        50         1        3.500747e-01
        51         1        2.157949e-01
        52         1        7.057905e-01
        53         1        7.836213e-03
        54         1       -5.698140e-02
        55         1       -2.785687e-01
        56         1        1.290447e+00
        57         1        7.948635e-01
        58         1       -1.326277e+00
        59         1       -5.547667e-01
        60         1       -8.582565e-01
        61         1        1.220258e+00
        62         1        1.282432e+00
        63         1       -9.773554e-02
        64         1        1.505947e+00
        65         1       -4.064973e-01
        66         1        5.611581e-01
        67         1        7.206094e-01
        68         1       -4.758596e-01
        69         1        1.856255e+00
        70         1       -2.915247e-01
        71         1        2.409642e-01
        72         1        7.154240e-01
        73         1       -1.161914e+00
        74         1        5.402168e-01
        75         1        1.774674e+00
        76         1        7.450509e-02
        77         1        1.089935e+00
        78         1       -5.843913e-01
        79         1        3.892548e-01
        80         1       -2.088587e+00
        81         1       -1.448482e+00
        82         1        6.101777e-01
        83         1        1.703435e+00
        84         1       -1.142061e+00
        85         1       -1.089553e+00
        86         1       -1.618723e-01
        87         1       -7.346757e-01
        88         1        7.122030e-01
        89         1       -7.458141e-01
        90         1       -1.124362e+00
        91         1       -8.036867e-01
        92         1       -1.709922e-01
        93         1        4.941988e-01
        94         1        9.444485e-01
        95         1        1.572358e+00
        96         1        5.099557e-01
        97         1       -1.978526e+00
        98         1       -1.710169e+00
        99         1       -5.528729e-01
       100         1        2.146808e-01
         1         2       -7.363205e-01
         2         2       -2.305228e+00
         3         2        4.101975e-02
         4         2        1.636578e+00
         5         2        1.354586e+00
         6         2        2.899385e-01
         7         2       -3.462585e-01
         8         2       -7.870899e-02
         9         2       -1.237950e+00
        10         2        1.237422e+00
        11         2       -1.045092e+00
        12         2        3.670598e-01
        13         2       -2.094764e+00
        14         2       -1.925946e-02
        15         2        1.777718e-01
        16         2        5.329305e-01
        17         2       -1.078650e-01
        18         2        4.229283e-01
        19         2        2.249932e-01
        20         2       -2.768046e+00
        21         2        1.715439e+00
        22         2       -1.415362e+00
        23         2       -3.889639e-01
        24         2       -4.304687e-01
        25         2        1.168119e+00
        26         2        2.983557e-01
        27         2        1.061001e-01
        28         2       -1.227978e+00
        29         2       -1.296471e+00
        30         2        4.643310e-01
        31         2       -2.829668e-01
        32         2        1.374007e+00
        33         2       -5.650026e-01
        34         2        1.899983e+00
        35         2        6.757564e-01
        36         2       -6.463060e-01
        37         2        1.952283e-02
        38         2       -2.639680e-01
        39         2       -9.678658e-01
        40         2        4.156988e-01
        41         2       -3.173802e+00
        42         2        5.559193e-01
        43         2        3.294850e-01
        44         2        2.856137e-01
        45         2       -1.339464e+00
        46         2        4.612437e-02
        47         2        1.252394e+00
        48         2       -3.034289e-01
        49         2        1.634727e-01
        50         2        3.833912e-02
        51         2       -1.690454e+00
        52         2       -2.862105e-01
        53         2       -1.144562e+00
        54         2        3.459093e-01
        55         2        8.269439e-01
        56         2        6.123168e-01
        57         2       -5.505447e-01
        58         2        4.691653e-02
        59         2        2.033111e+00
        60         2       -7.367890e-02
        61         2        2.627703e-01
        62         2        8.215862e-01
        63         2        1.469507e-01
        64         2        7.783279e-01
        65         2       -3.070712e-01
        66         2        1.810057e+00
        67         2       -6.004578e-01
        68         2        1.641388e-01
        69         2       -2.252347e-01
        70         2       -7.081444e-01
        71         2        3.503166e-01
        72         2        1.679124e-01
        73         2        5.200579e-01
        74         2       -2.008360e+00
        75         2       -2.224593e-01
        76         2       -1.441442e+00
        77         2       -1.020890e+00
        78         2        7.187711e-01
        79         2       -6.956504e-01
        80         2        9.412081e-01
        81         2       -1.396049e+00
        82         2        4.933393e-01
        83         2       -7.998453e-01
        84         2       -4.202928e-01
        85         2        6.430748e-01
        86         2       -6.928493e-01
        87         2       -1.097443e+00
        88         2        1.346871e+00
        89         2        1.063985e+00
        90         2       -3.176614e-01
        91         2       -6.787670e-01
        92         2       -5.874253e-01
        93         2        8.577283e-01
        94         2       -9.190924e-01
        95         2       -9.257551e-01
        96         2       -1.432875e+00
        97         2       -1.374512e+00
        98         2        9.286712e-02
        99         2       -7.528187e-01
       100         2        1.452404e+00
         1         3       -1.291696e+00
         2         3        2.361443e-01
         3         3        7.991794e-01
         4         3        2.980007e-01
         5         3       -3.680133e-01
         6         3        1.298619e+00
         7         3        7.807672e-01
         8         3        3.926217e-01
         9         3       -6.587808e-01
        10         3        7.225507e-01
        11         3       -5.678682e-01
        12         3       -6.195929e-01
        13         3       -1.387355e+00
        14         3        1.252539e-01
        15         3       -7.775277e-01
        16         3       -3.977666e-01
        17         3        2.976154e-01
        18         3        3.424830e-01
        19         3       -2.306183e+00
        20         3        2.398186e-01
        21         3       -2.047528e-01
        22         3        2.201121e-01
        23         3        3.799369e-01
        24         3       -1.995342e+00
        25         3       -2.857566e-01
        26         3        7.924590e-01
        27         3        1.110900e+00
        28         3        2.480580e-01
        29         3        3.274715e-01
        30         3        7.200176e-01
        31         3        5.228005e-01
        32         3       -3.758351e-01
        33         3        3.773056e-01
        34         3        3.864282e-01
        35         3       -3.530272e-01
        36         3       -2.249158e+00
        37         3        1.373404e-01
        38         3       -4.143576e-01
        39         3       -8.097655e-01
        40         3        6.124990e-01
        41         3       -3.368069e-01
        42         3       -4.010442e-01
        43         3       -3.945054e-02
        44         3       -6.298939e-01
        45         3        8.939024e-01
        46         3       -3.419722e-01
        47         3        2.346165e+00
        48         3       -7.043242e-02
        49         3        1.287665e+00
        50         3       -4.158126e-01
        51         3       -8.034944e-01
        52         3        1.399534e+00
        53         3        4.536051e-01
        54         3       -3.609847e-01
        55         3       -9.621186e-01
        56         3       -1.337553e+00
        57         3        6.285919e-01
        58         3        7.610790e-01
        59         3        2.803206e-01
        60         3        2.699495e+00
        61         3       -9.429840e-01
        62         3        1.287531e-01
        63         3        3.746018e-01
        64         3       -6.441078e-02
        65         3       -3.153638e-01
        66         3        6.205401e-01
        67         3        8.406762e-01
        68         3       -4.306009e-01
        69         3        3.782724e-01
        70         3        6.006179e-01
        71         3        1.043458e+00
        72         3        1.285092e+00
        73         3        2.851389e-01
        74         3       -4.067767e-01
        75         3        2.019211e+00
        76         3       -1.818862e-01
        77         3        4.134865e-01
        78         3        5.412390e-01
        79         3       -4.994630e-01
        80         3       -1.387477e-01
        81         3       -5.048723e-02
        82         3       -1.126170e+00
        83         3        4.669079e-01
        84         3       -1.046449e+00
        85         3        1.267373e+00
        86         3        3.427961e+00
        87         3       -3.041625e-01
        88         3       -2.251927e-01
        89         3        1.468247e+00
        90         3       -9.153981e-01
        91         3       -6.716259e-02
        92         3        5.107814e-01
        93         3       -1.207275e-01
        94         3        7.000136e-01
        95         3       -4.480831e-01
        96         3        1.041398e+00
        97         3        1.749490e+00
        98         3       -1.106348e+00
        99         3        6.617482e-01
       100         3        8.208404e-01
         1         4        9.801296e-01
         2         4       -2.133049e+00
         3         4        9.896068e-01
         4         4        9.775640e-01
         5         4       -1.130146e+00
         6         4        1.131887e+00
         7         4       -1.945883e+00
         8         4       -4.435902e-01
         9         4        5.716871e-01
        10         4        3.965557e-01
        11         4        8.134197e-01
        12         4        1.360067e+00
        13         4       -2.465057e+00
        14         4        6.865000e-01
        15         4       -2.575209e-01
        16         4        3.004748e-01
        17         4        3.067759e-01
        18         4       -3.688182e-01
        19         4        9.279912e-01
        20         4       -2.005211e-01
        21         4       -1.211892e+00
        22         4       -1.510628e+00
        23         4       -9.031846e-02
        24         4       -8.940848e-01
        25         4        1.535564e+00
        26         4       -9.427043e-01
        27         4       -1.036126e+00
        28         4       -8.734219e-01
        29         4        6.922411e-01
        30         4       -7.046018e-01
        31         4        7.635831e-01
        32         4        7.149157e-01
        33         4        2.593107e-01
        34         4       -9.685687e-01
        35         4       -2.605994e-01
        36         4       -1.105961e+00
        37         4       -5.196963e-01
        38         4       -1.312453e-01
        39         4        5.869813e-01
        40         4        3.740674e-01
        41         4        6.643675e-01
        42         4       -1.554698e-01
        43         4        8.864837e-01
        44         4       -4.497121e-01
        45         4       -1.512642e+00
        46         4       -1.584259e-01
        47         4       -1.118105e+00
        48         4       -9.632337e-01
        49         4       -2.027231e-01
        50         4       -3.241502e-01
        51         4       -6.737355e-01
        52         4        2.793686e-01
        53         4        2.516123e+00
        54         4       -1.367611e+00
        55         4       -4.811024e-01
        56         4       -6.919895e-01
        57         4        6.165283e-01
        58         4        5.563569e-01
        59         4        1.689640e-01
        60         4        6.464569e-01
        61         4       -8.116974e-01
        62         4       -6.423367e-01
        63         4       -1.491231e+00
        64         4       -1.722048e+00
        65         4        9.909531e-01
        66         4       -3.871119e-01
        67         4       -7.237939e-01
        68         4        7.691136e-01
        69         4       -3.346223e-01
        70         4        5.865799e-01
        71         4        8.319156e-01
        72         4        1.695530e+00
        73         4       -7.237132e-01
        74         4        6.936020e-01
        75         4        2.144431e-01
        76         4       -1.028850e+00
        77         4        2.794484e-01
        78         4        4.707415e-03
        79         4        2.156900e+00
        80         4       -1.912771e+00
        81         4        6.696466e-01
        82         4        4.175898e-01
        83         4        7.029043e-01
        84         4       -4.917724e-01
        85         4        3.527221e-01
        86         4        1.393756e+00
        87         4       -1.343544e-01
        88         4       -8.455463e-01
        89         4        2.118746e-01
        90         4       -9.711240e-01
        91         4       -1.875099e-01
        92         4        2.112433e+00
        93         4       -1.158724e+00
        94         4       -3.558203e-02
        95         4       -2.564998e-01
        96         4        2.536161e-01
        97         4        4.895625e-01
        98         4       -1.690112e+00
        99         4        4.668579e-02
       100         4       -2.176110e-01
         1         5        7.517218e-01
         2         5       -5.337350e-01
         3         5       -1.144149e-01
         4         5       -4.498854e-01
         5         5        9.369873e-01
         6         5        8.553199e-01
         7         5       -7.709351e-01
         8         5       -1.004208e+00
         9         5        1.261062e+00
        10         5        2.357875e-01
        11         5       -1.304091e+00
        12         5       -5.141677e-02
        13         5        4.252855e-01
        14         5       -6.047433e-01
        15         5        6.293248e-01
        16         5        9.196463e-01
        17         5        1.671114e+00
        18         5        4.198441e-02
        19         5        6.380165e-01
        20         5        1.155917e-01
        21         5       -4.416705e-01
        22         5       -5.083932e-01
        23         5        2.536076e+00
        24         5        1.665909e+00
        25         5        4.122357e-01
        26         5        1.021984e+00
        27         5        7.209414e-01
        28         5       -3.075867e-01
        29         5       -1.183719e+00
        30         5        1.027180e+00
        31         5        5.742815e-02
        32         5        1.905556e-02
        33         5        6.000125e-01
        34         5       -2.778438e-01
        35         5        1.200957e+00
        36         5       -2.646101e+00
        37         5       -6.848783e-02
        38         5       -8.535590e-01
        39         5       -9.187610e-02
        40         5        4.730266e-01
        41         5       -8.756873e-01
        42         5        1.313908e+00
        43         5        9.764502e-01
        44         5        2.494144e-01
        45         5       -5.457082e-01
        46         5       -7.461988e-01
        47         5       -1.256128e-01
        48         5        6.490065e-01
        49         5       -1.442493e+00
        50         5       -7.435640e-01
        51         5        5.897120e-01
        52         5       -1.105731e+00
        53         5       -8.722922e-01
        54         5        8.618267e-02
        55         5       -1.760334e-01
        56         5        1.680178e+00
        57         5        1.153156e-01
        58         5       -1.234340e-01
        59         5       -1.762195e+00
        60         5        2.885881e+00
        61         5        1.621644e+00
        62         5       -5.525556e-01
        63         5        8.296320e-01
        64         5       -7.182743e-01
        65         5        2.750640e-01
        66         5       -3.590551e-01
        67         5       -9.533953e-01
        68         5       -2.574695e-01
        69         5        1.788267e-03
        70         5        8.249997e-02
        71         5        7.961761e-01
        72         5       -3.172842e-01
        73         5       -5.348449e-01
        74         5        1.376022e+00
        75         5       -3.861125e-01
        76         5       -3.915519e-01
        77         5        6.149363e-01
        78         5       -5.975056e-01
        79         5        1.906847e+00
        80         5        1.098376e+00
        81         5       -1.730904e+00
        82         5        7.686908e-02
        83         5        3.563792e-01
        84         5        1.511584e-01
        85         5        2.951452e-01
        86         5        5.867980e-01
        87         5       -2.571494e-01
        88         5        8.488309e-02
        89         5        7.253962e-01
        90         5       -1.316585e+00
        91         5        1.425896e+00
        92         5       -2.196755e+00
        93         5       -1.602950e+00
        94         5       -4.426246e-01
        95         5        2.201034e+00
        96         5        4.085757e-01
        97         5        2.205500e+00
        98         5       -4.755709e-01
        99         5       -9.846006e-01
       100         5        1.065212e+00
;

param theta:=
    1        8.824600e-01
    2        6.081126e-01
    3        6.389160e-01
    4       -7.372015e-01
    5        1.510716e+00
;
param X_true:=
    1       -1.477796e+00
    2       -2.874646e+00
    3       -5.740772e-01
    4        7.203793e-01
    5        2.865336e+00
    6        1.774608e+00
    7        5.465049e-01
    8       -2.380114e+00
    9        1.904754e+00
   10        2.933204e-01
   11       -3.021558e+00
   12       -1.226686e+00
   13       -1.415846e-01
   14       -3.250572e-01
   15        2.168584e+00
   16        1.026586e+00
   17        3.810367e+00
   18        2.861405e+00
   19       -1.904869e-01
   20       -5.596173e-01
   21        6.330586e-01
   22       -1.601307e+00
   23        3.557374e+00
   24        8.974081e-01
   25        4.458876e-01
   26        2.292594e+00
   27        3.585533e+00
   28        8.228820e-01
   29       -4.067089e+00
   30        1.978488e+00
   31        1.554221e-01
   32        9.540482e-02
   33        1.028128e+00
   34        1.908327e+00
   35        3.613575e+00
   36       -3.762494e+00
   37        5.387776e-02
   38        7.112069e-01
   39       -1.229398e+00
   40       -1.100291e+00
   41       -2.477229e+00
   42        9.127658e-01
   43        6.094597e-01
   44        1.777438e+00
   45        3.098314e-01
   46       -9.750671e-01
   47        3.510434e+00
   48        2.108475e+00
   49       -1.205193e-01
   50       -1.026392e+00
   51        8.831602e-02
   52       -6.905541e-01
   53       -3.535589e+00
   54        1.061194e+00
   55       -3.598294e-01
   56        3.823347e+00
   57        3.610620e-01
   58       -1.264254e+00
   59       -1.822879e+00
   60        4.839412e+00
   61        3.474353e+00
   62        1.473510e+00
   63        2.625197e+00
   64        2.010455e+00
   65       -1.133293e+00
   66        1.685674e+00
   67       -1.419167e-01
   68       -1.609121e+00
   69        1.938937e+00
   70       -6.473592e-01
   71        1.514211e+00
   72       -2.267879e-01
   73       -8.611513e-01
   74        8.099067e-01
   75        2.040156e+00
   76       -8.203279e-01
   77        1.249340e+00
   78       -6.399611e-01
   79        9.271710e-01
   80        1.740400e+00
   81       -5.213710e+00
   82        1.036388e-02
   83        1.303422e+00
   84       -1.346438e+00
   85        4.482874e-01
   86        1.532156e+00
   87       -1.819312e+00
   88        2.128952e+00
   89        1.848582e+00
   90       -3.085951e+00
   91        1.110341e+00
   92       -5.267677e+00
   93       -7.909818e-01
   94        6.564456e-02
   95        3.970065e+00
   96        6.286361e-01
   97        1.611047e+00
   98       -1.619387e+00
   99       -2.118495e+00
  100        3.412759e+00
;
param X:=
    1        3.386267e-01
    2       -2.939968e+00
    3        1.683036e+00
    4       -1.024029e-01
    5        1.226949e+00
    6       -1.172324e+00
    7       -1.261042e+00
    8       -1.636722e+00
    9       -7.999460e-01
   10       -6.583458e-01
   11        6.328341e-01
   12       -1.074358e+00
   13       -1.110048e+00
   14       -9.523833e-02
   15       -5.372268e-02
   16       -4.188176e-01
   17        9.321026e-01
   18        2.861405e+00
   19        5.983117e-01
   20       -5.962821e-01
   21        1.680921e+00
   22        1.445531e-01
   23        7.927191e-01
   24       -2.856883e-01
   25        4.458876e-01
   26       -3.793855e-01
   27       -6.728863e-01
   28        8.228820e-01
   29       -4.067089e+00
   30        2.244467e+00
   31        1.229316e+00
   32       -5.087303e-01
   33       -2.963441e-01
   34       -6.023574e-01
   35       -1.282668e+00
   36        2.174140e-01
   37        3.121619e-01
   38        1.525750e+00
   39        2.687542e-01
   40       -1.624988e+00
   41        1.310700e+00
   42        6.829309e-01
   43       -8.221869e-02
   44        3.947535e-01
   45       -2.168885e+00
   46        1.161961e+00
   47        3.510434e+00
   48        1.707855e+00
   49        1.686771e-01
   50       -1.026392e+00
   51        1.571655e+00
   52       -1.896889e+00
   53       -1.536310e+00
   54       -1.699873e-01
   55        5.104683e-01
   56       -6.808783e-01
   57        5.457078e-01
   58       -2.382842e-01
   59        1.311814e+00
   60       -6.043391e-01
   61        3.474353e+00
   62       -3.532931e-01
   63        8.758401e-01
   64        1.939905e+00
   65       -2.875071e-01
   66       -1.476285e+00
   67       -3.364170e-01
   68        1.623840e+00
   69       -4.941749e-01
   70       -1.269233e+00
   71       -3.573873e-01
   72        4.511273e-01
   73       -1.831009e-01
   74       -4.135701e-01
   75        2.040156e+00
   76        1.294658e+00
   77       -7.525026e-01
   78        8.015796e-01
   79       -2.698964e-01
   80        6.890700e-01
   81       -1.921153e+00
   82       -6.808498e-01
   83        1.303422e+00
   84       -1.346438e+00
   85       -5.602163e-01
   86        1.204150e+00
   87        3.341385e-01
   88       -7.976134e-01
   89       -9.701230e-01
   90        2.025068e+00
   91        1.932167e+00
   92        4.550003e-01
   93       -6.309479e-01
   94       -5.406279e-01
   95       -1.079732e+00
   96        9.983954e-01
   97        2.635143e-01
   98        1.100713e+00
   99       -2.066212e+00
  100       -9.303861e-01
;
param outliervec:=
    1    1
    2    1
    3    1
    4    1
    5    1
    6    1
    7    1
    8    1
    9    1
   10    1
   11    1
   12    1
   13    1
   14    1
   15    1
   16    1
   17    1
   18    0
   19    1
   20    1
   21    1
   22    1
   23    1
   24    1
   25    0
   26    1
   27    1
   28    0
   29    0
   30    1
   31    1
   32    1
   33    1
   34    1
   35    1
   36    1
   37    1
   38    1
   39    1
   40    1
   41    1
   42    1
   43    1
   44    1
   45    1
   46    1
   47    0
   48    1
   49    1
   50    0
   51    1
   52    1
   53    1
   54    1
   55    1
   56    1
   57    1
   58    1
   59    1
   60    1
   61    0
   62    1
   63    1
   64    1
   65    1
   66    1
   67    1
   68    1
   69    1
   70    1
   71    1
   72    1
   73    1
   74    1
   75    0
   76    1
   77    1
   78    1
   79    1
   80    1
   81    1
   82    1
   83    0
   84    0
   85    1
   86    1
   87    1
   88    1
   89    1
   90    1
   91    1
   92    1
   93    1
   94    1
   95    1
   96    1
   97    1
   98    1
   99    1
  100    1
;